2 100 1007
2 6 7 2 6 2 2 2 5 3
2 2
2 5
5 3
0 40.0 50.0 0.0 0.0 0 240
2 25.0 85.0 10.0 20.0 0 191 11 0 1 0 0 0 0 0 0 0 0
3 22.0 75.0 10.0 30.0 0 199 19 0 0 0 0 0 1 0 0 0 0
4 22.0 85.0 10.0 10.0 0 190 58 0 0 0 0 0 0 0 1 1 0
5 20.0 80.0 10.0 40.0 141 171 90 0 1 0 0 1 0 0 0 0 0
6 20.0 85.0 10.0 20.0 0 189 7 0 1 1 0 1 0 0 1 0 0
7 18.0 75.0 10.0 20.0 95 125 76 0 1 1 1 1 0 0 0 0 0
8 15.0 75.0 10.0 20.0 0 194 41 1 0 0 0 0 0 0 0 0 0
9 15.0 80.0 10.0 10.0 91 121 3 0 0 1 0 0 0 0 0 0 0
10 10.0 35.0 10.0 20.0 91 121 51 0 0 1 0 0 0 0 1 0 1
11 10.0 40.0 10.0 30.0 119 149 45 0 0 0 0 0 1 0 0 0 0
12 8.0 40.0 10.0 40.0 59 89 57 0 0 0 0 1 0 0 1 0 1
13 8.0 45.0 10.0 20.0 0 197 86 1 0 1 0 0 0 1 0 0 0
14 5.0 35.0 10.0 10.0 142 172 31 0 1 1 0 0 0 0 1 0 1
15 5.0 45.0 10.0 10.0 0 194 74 0 0 0 0 0 0 0 0 0 1
16 2.0 40.0 10.0 20.0 58 88 49 0 1 1 0 0 0 0 0 1 0
17 0.0 40.0 10.0 20.0 0 188 17 0 0 0 0 0 1 0 0 0 0
18 0.0 45.0 10.0 20.0 149 179 60 0 0 1 0 0 0 1 1 0 1
19 44.0 5.0 10.0 20.0 0 184 55 0 0 0 0 0 0 0 0 1 0
20 42.0 10.0 10.0 40.0 0 189 52 0 0 1 1 0 0 0 0 0 0
21 42.0 15.0 10.0 10.0 0 194 49 0 0 1 1 0 1 1 0 0 0
22 40.0 5.0 10.0 10.0 0 185 61 0 1 0 0 0 0 0 0 0 0
23 40.0 15.0 10.0 40.0 92 122 10 0 0 1 0 0 0 0 0 1 0
24 38.0 5.0 10.0 30.0 65 95 42 0 0 0 0 1 0 0 0 0 0
25 38.0 15.0 10.0 10.0 0 194 39 0 0 0 1 0 0 0 0 0 0
26 35.0 5.0 10.0 20.0 154 184 62 0 0 0 0 0 1 0 0 0 0
27 95.0 30.0 10.0 30.0 0 171 37 0 0 0 1 0 0 0 0 1 0
28 95.0 35.0 10.0 20.0 62 92 42 0 0 1 1 0 0 0 1 0 1
29 92.0 30.0 10.0 10.0 0 174 10 0 1 0 0 0 0 1 0 0 0
30 90.0 35.0 10.0 10.0 0 177 63 0 0 0 0 0 0 0 0 0 1
31 88.0 30.0 10.0 10.0 74 104 21 0 0 0 1 1 0 1 0 0 0
32 88.0 35.0 10.0 20.0 0 179 16 1 0 0 0 0 1 1 0 0 1
33 87.0 30.0 10.0 10.0 0 178 15 1 0 0 0 0 0 0 1 0 0
34 85.0 25.0 10.0 10.0 51 81 87 0 1 0 0 1 0 0 1 0 1
35 85.0 35.0 10.0 30.0 0 182 96 1 0 0 1 0 0 0 0 0 0
36 67.0 85.0 10.0 20.0 139 169 8 0 0 0 0 0 1 0 0 0 0
37 65.0 85.0 10.0 40.0 43 73 65 0 0 0 1 0 0 0 0 0 1
38 65.0 82.0 10.0 10.0 0 189 88 0 1 0 1 0 0 0 0 0 0
39 62.0 80.0 10.0 30.0 75 105 47 0 0 1 0 1 1 0 0 0 0
40 60.0 80.0 10.0 10.0 37 67 6 0 0 0 0 0 1 0 0 0 0
41 60.0 85.0 10.0 30.0 85 115 27 0 0 0 0 0 1 1 0 0 0
42 58.0 75.0 10.0 20.0 92 122 88 0 0 0 1 0 0 1 1 0 0
43 55.0 80.0 10.0 10.0 33 63 76 0 0 0 1 1 0 0 0 0 0
44 55.0 85.0 10.0 20.0 0 191 5 0 0 0 1 1 0 0 0 0 1
45 55.0 82.0 10.0 10.0 64 94 3 1 0 0 0 0 0 0 0 0 0
46 20.0 82.0 10.0 10.0 37 67 79 1 0 1 0 0 0 0 0 1 0
47 18.0 80.0 10.0 10.0 0 192 68 1 1 0 0 0 1 0 0 0 1
48 2.0 45.0 10.0 10.0 0 191 6 0 0 0 0 0 1 1 0 1 0
49 42.0 5.0 10.0 10.0 0 184 16 0 0 0 0 0 1 0 0 0 0
50 42.0 12.0 10.0 10.0 104 134 48 0 0 0 1 0 1 0 0 0 0
51 72.0 35.0 10.0 30.0 0 194 36 0 0 0 0 0 0 0 0 1 1
52 55.0 20.0 10.0 19.0 0 196 50 0 0 0 0 0 1 0 0 0 0
53 25.0 30.0 10.0 3.0 0 205 76 0 0 0 0 0 0 1 0 0 0
54 20.0 50.0 10.0 5.0 91 121 82 0 1 0 0 0 0 0 0 1 0
55 55.0 60.0 10.0 16.0 0 211 38 0 1 0 1 0 0 0 0 0 0
56 30.0 60.0 10.0 16.0 140 170 13 0 0 0 1 0 0 0 0 0 0
57 50.0 35.0 10.0 19.0 130 160 28 0 0 1 0 0 0 0 0 1 1
58 30.0 25.0 10.0 23.0 0 203 91 0 0 0 0 0 1 0 0 0 0
59 15.0 10.0 10.0 20.0 152 182 99 0 0 0 0 0 1 0 0 0 0
60 10.0 20.0 10.0 19.0 0 187 62 0 1 0 0 0 0 0 0 0 1
61 15.0 60.0 10.0 17.0 0 203 22 0 0 0 1 1 0 0 0 0 0
62 45.0 65.0 10.0 9.0 0 214 76 0 0 0 0 0 1 0 0 0 0
63 65.0 35.0 10.0 3.0 52 82 5 0 0 0 0 0 0 1 0 0 0
64 65.0 20.0 10.0 6.0 0 190 44 0 0 0 0 0 1 1 1 1 0
65 45.0 30.0 10.0 17.0 53 83 42 0 0 1 0 0 1 0 1 0 1
66 35.0 40.0 10.0 16.0 11 41 96 0 0 0 0 0 1 0 0 0 0
67 41.0 37.0 10.0 16.0 133 163 59 0 0 1 0 1 0 0 0 0 1
68 64.0 42.0 10.0 9.0 70 100 87 0 0 0 0 0 1 1 0 1 0
69 40.0 60.0 10.0 21.0 144 174 9 0 0 0 0 0 1 0 1 0 1
70 31.0 52.0 10.0 27.0 41 71 27 0 0 0 0 0 1 0 0 0 0
71 35.0 69.0 10.0 23.0 180 210 53 0 1 0 1 0 1 1 0 1 0
72 65.0 55.0 10.0 14.0 0 204 27 0 1 0 0 0 0 1 0 1 0
73 63.0 65.0 10.0 8.0 0 202 82 1 0 0 0 0 0 0 0 0 0
74 2.0 60.0 10.0 5.0 0 190 19 0 0 1 0 1 0 0 0 0 1
75 20.0 20.0 10.0 8.0 141 171 82 0 0 0 0 0 0 1 0 0 0
76 5.0 5.0 10.0 16.0 0 172 55 0 0 0 0 0 1 0 0 0 1
77 60.0 12.0 10.0 31.0 75 105 74 0 0 0 0 1 0 0 0 0 1
78 23.0 3.0 10.0 7.0 150 180 2 0 0 0 0 0 0 0 0 1 1
79 8.0 56.0 10.0 27.0 90 120 60 0 1 1 0 0 0 0 0 0 0
80 6.0 68.0 10.0 30.0 89 119 66 0 1 0 0 0 0 0 0 0 0
81 47.0 47.0 10.0 13.0 192 222 20 1 0 0 0 0 0 0 0 0 0
82 49.0 58.0 10.0 10.0 0 217 8 0 0 0 0 0 1 0 0 0 0
83 27.0 43.0 10.0 9.0 0 215 43 0 0 0 0 0 1 0 0 0 0
84 37.0 31.0 10.0 14.0 0 210 75 0 0 0 0 0 1 0 0 0 0
85 57.0 29.0 10.0 18.0 96 126 34 0 0 0 1 0 0 1 0 0 1
86 63.0 23.0 10.0 2.0 0 194 64 1 0 0 0 0 0 1 0 0 0
87 21.0 24.0 10.0 28.0 0 197 18 0 0 0 0 0 0 0 1 1 0
88 12.0 24.0 10.0 13.0 90 120 58 0 0 1 0 0 0 0 0 0 0
89 24.0 58.0 10.0 19.0 67 97 51 0 1 1 0 0 0 0 0 0 1
90 67.0 5.0 10.0 25.0 0 177 57 0 0 0 0 1 0 0 1 1 0
91 37.0 47.0 10.0 6.0 0 225 39 0 0 0 1 0 0 0 0 0 0
92 49.0 42.0 10.0 13.0 0 217 50 0 0 0 0 1 0 0 0 0 1
93 53.0 43.0 10.0 14.0 14 44 90 0 0 0 0 0 1 0 0 0 0
94 61.0 52.0 10.0 3.0 178 208 14 1 0 0 1 0 1 0 1 0 0
95 57.0 48.0 10.0 23.0 0 212 22 0 1 1 0 1 0 0 0 1 0
96 56.0 37.0 10.0 6.0 0 209 4 0 0 0 0 0 1 0 0 0 0
97 55.0 54.0 10.0 26.0 0 214 32 0 0 0 0 0 1 0 0 0 0
98 4.0 18.0 10.0 35.0 0 181 11 0 0 0 0 1 0 0 1 0 0
99 26.0 52.0 10.0 9.0 0 215 22 0 0 0 0 0 1 0 0 0 1
100 26.0 35.0 10.0 15.0 77 107 67 1 0 0 0 0 1 0 1 1 0
101 31.0 67.0 10.0 3.0 180 210 94 0 1 0 1 0 0 0 0 0 0